(declare-fun temp1245_1 () (_ BitVec 64))
(declare-fun var77203 () (_ BitVec 64))
(declare-fun var210653 () (_ BitVec 64))
(declare-fun var210913 () (_ BitVec 64))
(declare-fun temp1245_2 () (_ BitVec 64))
(declare-fun var210940 () (_ BitVec 64))
(declare-fun ARGNAME_weight_NAMEEND_DIM () (_ BitVec 64))
(declare-fun temp1245_3 () (_ BitVec 64))
(declare-fun temp1245_4 () (_ BitVec 64))
(declare-fun var210941 () (_ BitVec 64))
(declare-fun k!0 () Bool)
(declare-fun temp1245_5 () (_ BitVec 64))
(declare-fun ARGNAME_groups_NAMEEND () (_ BitVec 64))
(declare-fun var210986 () (_ BitVec 64))
(declare-fun temp1245_6 () (_ BitVec 64))
(declare-fun ARGNAME_stride_NAMEEND_LEN () (_ BitVec 64))
(declare-fun ARGNAME_padding_NAMEEND_LEN () (_ BitVec 64))
(declare-fun ARGNAME_dilation_NAMEEND_LEN () (_ BitVec 64))
(declare-fun ARGNAME_output_padding_NAMEEND_LEN () (_ BitVec 64))
(declare-fun temp1245_7 () (_ BitVec 64))
(declare-fun temp1245_8 () (_ BitVec 64))
(declare-fun ARGNAME_padding_NAMEEND_VAL () (Array (_ BitVec 64) (_ BitVec 64)))
(declare-fun temp1245_9 () (_ BitVec 64))
(declare-fun temp1245_10 () (_ BitVec 64))
(declare-fun temp1245_11 () (_ BitVec 64))
(declare-fun temp1245_12 () (_ BitVec 64))
(declare-fun temp1245_13 () (_ BitVec 64))
(declare-fun temp1245_14 () (_ BitVec 64))
(declare-fun temp1245_15 () (_ BitVec 64))
(declare-fun temp1245_16 () (_ BitVec 64))
(declare-fun temp1245_17 () (_ BitVec 64))
(declare-fun temp1245_18 () (_ BitVec 64))
(declare-fun temp1245_19 () (_ BitVec 64))
(declare-fun temp1245_20 () (_ BitVec 64))
(declare-fun temp1245_21 () (_ BitVec 64))
(declare-fun temp1245_22 () (_ BitVec 64))
(declare-fun temp1245_23 () (_ BitVec 64))
(declare-fun temp1245_24 () (_ BitVec 64))
(declare-fun temp1245_25 () (_ BitVec 64))
(declare-fun temp1245_26 () (_ BitVec 64))
(declare-fun temp1245_27 () (_ BitVec 64))
(declare-fun temp1245_28 () (_ BitVec 64))
(declare-fun temp1245_29 () (_ BitVec 64))
(declare-fun temp1245_30 () (_ BitVec 64))
(declare-fun temp1245_31 () (_ BitVec 64))
(declare-fun temp1245_32 () (_ BitVec 64))
(declare-fun temp1245_33 () (_ BitVec 64))
(declare-fun temp1245_34 () (_ BitVec 64))
(declare-fun temp1245_35 () (_ BitVec 64))
(declare-fun temp1245_36 () (_ BitVec 64))
(declare-fun temp1245_37 () (_ BitVec 64))
(declare-fun temp1245_38 () (_ BitVec 64))
(declare-fun temp1245_39 () (_ BitVec 64))
(declare-fun temp1245_40 () (_ BitVec 64))
(declare-fun temp1245_41 () (_ BitVec 64))
(declare-fun temp1245_42 () (_ BitVec 64))
(declare-fun temp1245_43 () (_ BitVec 64))
(declare-fun temp1245_44 () (_ BitVec 64))
(declare-fun temp1245_45 () (_ BitVec 64))
(declare-fun temp1245_46 () (_ BitVec 64))
(declare-fun temp1245_47 () (_ BitVec 64))
(declare-fun temp1245_48 () (_ BitVec 64))
(declare-fun var1191714 () (_ BitVec 64))
(declare-fun temp1245_49 () (_ BitVec 64))
(declare-fun temp1245_50 () (_ BitVec 64))
(declare-fun temp1245_51 () (_ BitVec 64))
(declare-fun ARGNAME_output_padding_NAMEEND_VAL
             ()
             (Array (_ BitVec 64) (_ BitVec 64)))
(declare-fun temp1245_52 () (_ BitVec 64))
(declare-fun temp1245_53 () (_ BitVec 64))
(declare-fun temp1245_54 () (_ BitVec 64))
(declare-fun temp1245_55 () (_ BitVec 64))
(declare-fun temp1245_56 () (_ BitVec 64))
(declare-fun temp1245_57 () (_ BitVec 64))
(declare-fun temp1245_58 () (_ BitVec 64))
(declare-fun temp1245_59 () (_ BitVec 64))
(declare-fun temp1245_60 () (_ BitVec 64))
(declare-fun temp1245_61 () (_ BitVec 64))
(declare-fun temp1245_62 () (_ BitVec 64))
(declare-fun temp1245_63 () (_ BitVec 64))
(declare-fun temp1245_64 () (_ BitVec 64))
(declare-fun temp1245_65 () (_ BitVec 64))
(declare-fun temp1245_66 () (_ BitVec 64))
(declare-fun temp1245_67 () (_ BitVec 64))
(declare-fun temp1245_68 () (_ BitVec 64))
(declare-fun temp1245_69 () (_ BitVec 64))
(declare-fun temp1245_70 () (_ BitVec 64))
(declare-fun temp1245_71 () (_ BitVec 64))
(declare-fun temp1245_72 () (_ BitVec 64))
(declare-fun temp1245_73 () (_ BitVec 64))
(declare-fun temp1245_74 () (_ BitVec 64))
(declare-fun temp1245_75 () (_ BitVec 64))
(declare-fun temp1245_76 () (_ BitVec 64))
(declare-fun temp1245_77 () (_ BitVec 64))
(declare-fun temp1245_78 () (_ BitVec 64))
(declare-fun temp1245_79 () (_ BitVec 64))
(declare-fun temp1245_80 () (_ BitVec 64))
(declare-fun temp1245_81 () (_ BitVec 64))
(declare-fun temp1245_82 () (_ BitVec 64))
(declare-fun temp1245_83 () (_ BitVec 64))
(declare-fun temp1245_84 () (_ BitVec 64))
(declare-fun temp1245_85 () (_ BitVec 64))
(declare-fun temp1245_86 () (_ BitVec 64))
(declare-fun temp1245_87 () (_ BitVec 64))
(declare-fun temp1245_88 () (_ BitVec 64))
(declare-fun temp1245_89 () (_ BitVec 64))
(declare-fun temp1245_90 () (_ BitVec 64))
(declare-fun temp1245_91 () (_ BitVec 64))
(declare-fun var1191725 () (_ BitVec 64))
(declare-fun temp1245_92 () (_ BitVec 64))
(declare-fun temp1245_93 () (_ BitVec 64))
(declare-fun temp1245_94 () (_ BitVec 64))
(declare-fun ARGNAME_stride_NAMEEND_VAL () (Array (_ BitVec 64) (_ BitVec 64)))
(declare-fun temp1245_95 () (_ BitVec 64))
(declare-fun temp1245_96 () (_ BitVec 64))
(declare-fun temp1245_97 () (_ BitVec 64))
(declare-fun temp1245_98 () (_ BitVec 64))
(declare-fun temp1245_99 () (_ BitVec 64))
(declare-fun temp1245_100 () (_ BitVec 64))
(declare-fun temp1245_101 () (_ BitVec 64))
(declare-fun temp1245_102 () (_ BitVec 64))
(declare-fun temp1245_103 () (_ BitVec 64))
(declare-fun temp1245_104 () (_ BitVec 64))
(declare-fun temp1245_105 () (_ BitVec 64))
(declare-fun temp1245_106 () (_ BitVec 64))
(declare-fun temp1245_107 () (_ BitVec 64))
(declare-fun temp1245_108 () (_ BitVec 64))
(declare-fun temp1245_109 () (_ BitVec 64))
(declare-fun temp1245_110 () (_ BitVec 64))
(declare-fun temp1245_111 () (_ BitVec 64))
(declare-fun temp1245_112 () (_ BitVec 64))
(declare-fun temp1245_113 () (_ BitVec 64))
(declare-fun temp1245_114 () (_ BitVec 64))
(declare-fun temp1245_115 () (_ BitVec 64))
(declare-fun temp1245_116 () (_ BitVec 64))
(declare-fun temp1245_117 () (_ BitVec 64))
(declare-fun temp1245_118 () (_ BitVec 64))
(declare-fun temp1245_119 () (_ BitVec 64))
(declare-fun temp1245_120 () (_ BitVec 64))
(declare-fun temp1245_121 () (_ BitVec 64))
(declare-fun temp1245_122 () (_ BitVec 64))
(declare-fun temp1245_123 () (_ BitVec 64))
(declare-fun temp1245_124 () (_ BitVec 64))
(declare-fun temp1245_125 () (_ BitVec 64))
(declare-fun temp1245_126 () (_ BitVec 64))
(declare-fun temp1245_127 () (_ BitVec 64))
(declare-fun temp1245_128 () (_ BitVec 64))
(declare-fun temp1245_129 () (_ BitVec 64))
(declare-fun temp1245_130 () (_ BitVec 64))
(declare-fun temp1245_131 () (_ BitVec 64))
(declare-fun temp1245_132 () (_ BitVec 64))
(declare-fun temp1245_133 () (_ BitVec 64))
(declare-fun temp1245_134 () (_ BitVec 64))
(declare-fun var1191735 () (_ BitVec 64))
(declare-fun temp1245_135 () (_ BitVec 64))
(declare-fun ARGNAME_input_NAMEEND_DIM () (_ BitVec 64))
(declare-fun var1191747 () (_ BitVec 64))
(declare-fun temp1245_136 () (_ BitVec 64))
(declare-fun temp1245_137 () (_ BitVec 64))
(declare-fun var1179826 () (_ BitVec 64))
(declare-fun temp1245_138 () (_ BitVec 64))
(declare-fun temp1245_139 () (_ BitVec 64))
(declare-fun ARGNAME_weight_NAMEEND_DIMSIZE
             ()
             (Array (_ BitVec 64) (_ BitVec 64)))
(declare-fun temp1245_140 () (_ BitVec 64))
(declare-fun temp1245_141 () (_ BitVec 64))
(declare-fun temp1245_142 () (_ BitVec 64))
(declare-fun temp1245_143 () (_ BitVec 64))
(declare-fun temp1245_144 () (_ BitVec 64))
(declare-fun temp1245_145 () (_ BitVec 64))
(declare-fun temp1245_146 () (_ BitVec 64))
(declare-fun temp1245_147 () (_ BitVec 64))
(declare-fun temp1245_148 () (_ BitVec 64))
(declare-fun temp1245_149 () (_ BitVec 64))
(declare-fun temp1245_150 () (_ BitVec 64))
(declare-fun temp1245_151 () (_ BitVec 64))
(declare-fun temp1245_152 () (_ BitVec 64))
(declare-fun temp1245_153 () (_ BitVec 64))
(declare-fun temp1245_154 () (_ BitVec 64))
(declare-fun temp1245_155 () (_ BitVec 64))
(declare-fun temp1245_157 () (_ BitVec 64))
(declare-fun temp1245_158 () (_ BitVec 64))
(declare-fun temp1245_156 () (_ BitVec 64))
(declare-fun var1191780 () (_ BitVec 64))
(declare-fun temp1245_159 () (_ BitVec 64))
(declare-fun temp1245_160 () (_ BitVec 64))
(declare-fun temp1245_162 () (_ BitVec 64))
(declare-fun temp1245_163 () (_ BitVec 64))
(declare-fun temp1245_161 () (_ BitVec 64))
(declare-fun var1191802 () (_ BitVec 64))
(declare-fun temp1245_164 () (_ BitVec 64))
(declare-fun var1191803 () (_ BitVec 64))
(declare-fun temp1245_165 () (_ BitVec 64))
(declare-fun temp1245_166 () (_ BitVec 64))
(declare-fun ARGNAME_transposed_NAMEEND () (_ BitVec 64))
(declare-fun var1191823 () (_ BitVec 64))
(declare-fun temp1245_167 () (_ BitVec 64))
(declare-fun temp1245_168 () (_ BitVec 64))
(declare-fun var1180714 () (_ BitVec 64))
(declare-fun temp1245_169 () (_ BitVec 64))
(declare-fun temp1245_170 () (_ BitVec 64))
(declare-fun ARGNAME_input_NAMEEND_DIMSIZE
             ()
             (Array (_ BitVec 64) (_ BitVec 64)))
(declare-fun temp1245_171 () (_ BitVec 64))
(declare-fun temp1245_172 () (_ BitVec 64))
(declare-fun temp1245_173 () (_ BitVec 64))
(declare-fun temp1245_174 () (_ BitVec 64))
(declare-fun temp1245_175 () (_ BitVec 64))
(declare-fun temp1245_176 () (_ BitVec 64))
(declare-fun temp1245_177 () (_ BitVec 64))
(declare-fun temp1245_178 () (_ BitVec 64))
(declare-fun temp1245_179 () (_ BitVec 64))
(declare-fun temp1245_180 () (_ BitVec 64))
(declare-fun temp1245_181 () (_ BitVec 64))
(declare-fun temp1245_182 () (_ BitVec 64))
(declare-fun temp1245_183 () (_ BitVec 64))
(declare-fun temp1245_184 () (_ BitVec 64))
(declare-fun temp1245_185 () (_ BitVec 64))
(declare-fun temp1245_186 () (_ BitVec 64))
(declare-fun temp1245_187 () (_ BitVec 64))
(declare-fun temp1245_188 () (_ BitVec 64))
(declare-fun temp1245_189 () (_ BitVec 64))
(declare-fun var1191831 () (_ BitVec 64))
(declare-fun temp1245_190 () (_ BitVec 64))
(declare-fun temp1245_192 () (_ BitVec 64))
(declare-fun temp1245_193 () (_ BitVec 64))
(declare-fun temp1245_191 () (_ BitVec 64))
(declare-fun var1191835 () (_ BitVec 64))
(declare-fun var1191836 () (_ BitVec 64))
(declare-fun temp1245_194 () (_ BitVec 64))
(declare-fun temp1245_195 () (_ BitVec 64))
(declare-fun temp1245_197 () (_ BitVec 64))
(declare-fun temp1245_198 () (_ BitVec 64))
(declare-fun temp1245_196 () (_ BitVec 64))
(declare-fun temp1245_199 () (_ BitVec 64))
(declare-fun var1586025 () (_ BitVec 64))
(declare-fun var1586034 () (_ BitVec 64))
(declare-fun var1717312 () (_ BitVec 64))
(declare-fun temp1245_200 () (_ BitVec 64))
(declare-fun var1191993 () (_ BitVec 64))
(declare-fun temp1245_201 () (_ BitVec 64))
(declare-fun var2700303 () (_ BitVec 64))
(declare-fun temp1245_202 () (_ BitVec 64))
(declare-fun var2962447 () (_ BitVec 64))
(declare-fun temp1245_203 () (_ BitVec 64))
(declare-fun var211058 () (_ BitVec 64))
(declare-fun temp1245_204 () (_ BitVec 64))
(declare-fun temp1245_205 () (_ BitVec 64))
(declare-fun var211188 () (_ BitVec 64))
(declare-fun var3879401 () (_ BitVec 64))
(declare-fun temp1245_206 () (_ BitVec 64))
(declare-fun var3866802 () (_ BitVec 64))
(declare-fun temp1245_207 () (_ BitVec 64))
(declare-fun temp1245_208 () (_ BitVec 64))
(declare-fun temp1245_209 () (_ BitVec 64))
(declare-fun var3879420 () (_ BitVec 64))
(declare-fun temp1245_210 () (_ BitVec 64))
(declare-fun var3879421 () (_ BitVec 64))
(declare-fun temp1245_211 () (_ BitVec 64))
(declare-fun temp1245_212 () (_ BitVec 64))
(declare-fun var4133117 () (_ BitVec 64))
(declare-fun var4133062 () (_ BitVec 64))
(declare-fun var4079396 () (_ BitVec 64))
(declare-fun var4079423 () (_ BitVec 64))
(declare-fun var4079425 () (_ BitVec 64))
(declare-fun var4079382 () (_ BitVec 64))
(declare-fun var211201 () (_ BitVec 64))
(declare-fun temp1245_213 () (_ BitVec 64))
(declare-fun var4339331 () (_ BitVec 64))
(declare-fun var4339333 () (_ BitVec 64))
(declare-fun var4404876 () (_ BitVec 64))
(declare-fun var4404877 () (_ BitVec 64))
(declare-fun var4404890 () (_ BitVec 64))
(declare-fun var4404892 () (_ BitVec 64))
(declare-fun temp1245_214 () (_ BitVec 64))
(declare-fun var4404917 () (_ BitVec 64))
(declare-fun var4404919 () (_ BitVec 64))
(declare-fun var4525907 () (_ BitVec 64))
(declare-fun var4927888 () (_ BitVec 64))
(declare-fun var211494 () (_ BitVec 64))
(declare-fun temp1245_215 () (_ BitVec 64))
(declare-fun var211495 () (_ BitVec 64))
(declare-fun temp1245_216 () (_ BitVec 64))
(assert (= temp1245_1 #x0000000000000001))
(assert (= var77203 temp1245_1))
(assert (= var210653 var77203))
(assert (= var210913 var210653))
(assert (= temp1245_2 #xfffffffffffffffe))
(assert (= var210940 (bvadd ARGNAME_weight_NAMEEND_DIM temp1245_2)))
(assert (= temp1245_3 #x0000000000000003))
(assert (= var210941
   (ite (bvslt ARGNAME_weight_NAMEEND_DIM temp1245_3)
        #x0000000000000001
        #x0000000000000000)))
(assert (= temp1245_4 #x0000000000000000))
(assert (= var210941 temp1245_4))
(assert (= temp1245_5 #x0000000000000001))
(assert (= var210986
   (ite (bvslt ARGNAME_groups_NAMEEND temp1245_5)
        #x0000000000000001
        #x0000000000000000)))
(assert (= temp1245_6 #x0000000000000000))
(assert (= var210986 temp1245_6))
(assert (= ARGNAME_stride_NAMEEND_LEN var210940))
(assert (= ARGNAME_padding_NAMEEND_LEN var210940))
(assert (= ARGNAME_dilation_NAMEEND_LEN var210940))
(assert (= ARGNAME_output_padding_NAMEEND_LEN var210940))
(assert (= temp1245_7 #x0000000000000000))
(assert (= temp1245_8 temp1245_7))
(assert (= temp1245_9 (select ARGNAME_padding_NAMEEND_VAL temp1245_8)))
(assert (= temp1245_10 #x0000000000000001))
(assert (= temp1245_11 temp1245_10))
(assert (= temp1245_12 (select ARGNAME_padding_NAMEEND_VAL temp1245_11)))
(assert (= temp1245_13 #x0000000000000002))
(assert (= temp1245_14 temp1245_13))
(assert (= temp1245_15 (select ARGNAME_padding_NAMEEND_VAL temp1245_14)))
(assert (= temp1245_16 #x0000000000000003))
(assert (= temp1245_17 temp1245_16))
(assert (= temp1245_18 (select ARGNAME_padding_NAMEEND_VAL temp1245_17)))
(assert (= temp1245_19 #x0000000000000004))
(assert (= temp1245_20 temp1245_19))
(assert (= temp1245_21 (select ARGNAME_padding_NAMEEND_VAL temp1245_20)))
(assert (= temp1245_22 #x0000000000000005))
(assert (= temp1245_23 temp1245_22))
(assert (= temp1245_24 (select ARGNAME_padding_NAMEEND_VAL temp1245_23)))
(assert (= temp1245_25 #x0000000000000000))
(assert (= temp1245_26 #x0000000000000000))
(assert (= temp1245_27 temp1245_26))
(assert (= temp1245_28 (select ARGNAME_padding_NAMEEND_VAL temp1245_27)))
(assert (= temp1245_29 #x0000000000000000))
(assert (= temp1245_30 #x0000000000000001))
(assert (= temp1245_31 temp1245_30))
(assert (= temp1245_32 (select ARGNAME_padding_NAMEEND_VAL temp1245_31)))
(assert (= temp1245_33 #x0000000000000000))
(assert (= temp1245_34 #x0000000000000002))
(assert (= temp1245_35 temp1245_34))
(assert (= temp1245_36 (select ARGNAME_padding_NAMEEND_VAL temp1245_35)))
(assert (= temp1245_37 #x0000000000000000))
(assert (= temp1245_38 #x0000000000000003))
(assert (= temp1245_39 temp1245_38))
(assert (= temp1245_40 (select ARGNAME_padding_NAMEEND_VAL temp1245_39)))
(assert (= temp1245_41 #x0000000000000000))
(assert (= temp1245_42 #x0000000000000004))
(assert (= temp1245_43 temp1245_42))
(assert (= temp1245_44 (select ARGNAME_padding_NAMEEND_VAL temp1245_43)))
(assert (= temp1245_45 #x0000000000000000))
(assert (= temp1245_46 #x0000000000000005))
(assert (= temp1245_47 temp1245_46))
(assert (= temp1245_48 (select ARGNAME_padding_NAMEEND_VAL temp1245_47)))
(assert (= var1191714
   (ite (and true
             (bvslt temp1245_28 temp1245_25)
             (bvslt temp1245_32 temp1245_29)
             (bvslt temp1245_36 temp1245_33)
             (bvslt temp1245_40 temp1245_37)
             (bvslt temp1245_44 temp1245_41)
             (bvslt temp1245_48 temp1245_45))
        #x0000000000000001
        #x0000000000000000)))
(assert (= temp1245_49 #x0000000000000000))
(assert (= var1191714 temp1245_49))
(assert (= temp1245_50 #x0000000000000000))
(assert (= temp1245_51 temp1245_50))
(assert (= temp1245_52 (select ARGNAME_output_padding_NAMEEND_VAL temp1245_51)))
(assert (= temp1245_53 #x0000000000000001))
(assert (= temp1245_54 temp1245_53))
(assert (= temp1245_55 (select ARGNAME_output_padding_NAMEEND_VAL temp1245_54)))
(assert (= temp1245_56 #x0000000000000002))
(assert (= temp1245_57 temp1245_56))
(assert (= temp1245_58 (select ARGNAME_output_padding_NAMEEND_VAL temp1245_57)))
(assert (= temp1245_59 #x0000000000000003))
(assert (= temp1245_60 temp1245_59))
(assert (= temp1245_61 (select ARGNAME_output_padding_NAMEEND_VAL temp1245_60)))
(assert (= temp1245_62 #x0000000000000004))
(assert (= temp1245_63 temp1245_62))
(assert (= temp1245_64 (select ARGNAME_output_padding_NAMEEND_VAL temp1245_63)))
(assert (= temp1245_65 #x0000000000000005))
(assert (= temp1245_66 temp1245_65))
(assert (= temp1245_67 (select ARGNAME_output_padding_NAMEEND_VAL temp1245_66)))
(assert (= temp1245_68 #x0000000000000000))
(assert (= temp1245_69 #x0000000000000000))
(assert (= temp1245_70 temp1245_69))
(assert (= temp1245_71 (select ARGNAME_output_padding_NAMEEND_VAL temp1245_70)))
(assert (= temp1245_72 #x0000000000000000))
(assert (= temp1245_73 #x0000000000000001))
(assert (= temp1245_74 temp1245_73))
(assert (= temp1245_75 (select ARGNAME_output_padding_NAMEEND_VAL temp1245_74)))
(assert (= temp1245_76 #x0000000000000000))
(assert (= temp1245_77 #x0000000000000002))
(assert (= temp1245_78 temp1245_77))
(assert (= temp1245_79 (select ARGNAME_output_padding_NAMEEND_VAL temp1245_78)))
(assert (= temp1245_80 #x0000000000000000))
(assert (= temp1245_81 #x0000000000000003))
(assert (= temp1245_82 temp1245_81))
(assert (= temp1245_83 (select ARGNAME_output_padding_NAMEEND_VAL temp1245_82)))
(assert (= temp1245_84 #x0000000000000000))
(assert (= temp1245_85 #x0000000000000004))
(assert (= temp1245_86 temp1245_85))
(assert (= temp1245_87 (select ARGNAME_output_padding_NAMEEND_VAL temp1245_86)))
(assert (= temp1245_88 #x0000000000000000))
(assert (= temp1245_89 #x0000000000000005))
(assert (= temp1245_90 temp1245_89))
(assert (= temp1245_91 (select ARGNAME_output_padding_NAMEEND_VAL temp1245_90)))
(assert (= var1191725
   (ite (and true
             (bvslt temp1245_71 temp1245_68)
             (bvslt temp1245_75 temp1245_72)
             (bvslt temp1245_79 temp1245_76)
             (bvslt temp1245_83 temp1245_80)
             (bvslt temp1245_87 temp1245_84)
             (bvslt temp1245_91 temp1245_88))
        #x0000000000000001
        #x0000000000000000)))
(assert (= temp1245_92 #x0000000000000000))
(assert (= var1191725 temp1245_92))
(assert (= temp1245_93 #x0000000000000000))
(assert (= temp1245_94 temp1245_93))
(assert (= temp1245_95 (select ARGNAME_stride_NAMEEND_VAL temp1245_94)))
(assert (= temp1245_96 #x0000000000000001))
(assert (= temp1245_97 temp1245_96))
(assert (= temp1245_98 (select ARGNAME_stride_NAMEEND_VAL temp1245_97)))
(assert (= temp1245_99 #x0000000000000002))
(assert (= temp1245_100 temp1245_99))
(assert (= temp1245_101 (select ARGNAME_stride_NAMEEND_VAL temp1245_100)))
(assert (= temp1245_102 #x0000000000000003))
(assert (= temp1245_103 temp1245_102))
(assert (= temp1245_104 (select ARGNAME_stride_NAMEEND_VAL temp1245_103)))
(assert (= temp1245_105 #x0000000000000004))
(assert (= temp1245_106 temp1245_105))
(assert (= temp1245_107 (select ARGNAME_stride_NAMEEND_VAL temp1245_106)))
(assert (= temp1245_108 #x0000000000000005))
(assert (= temp1245_109 temp1245_108))
(assert (= temp1245_110 (select ARGNAME_stride_NAMEEND_VAL temp1245_109)))
(assert (= temp1245_111 #x0000000000000000))
(assert (= temp1245_112 #x0000000000000000))
(assert (= temp1245_113 temp1245_112))
(assert (= temp1245_114 (select ARGNAME_stride_NAMEEND_VAL temp1245_113)))
(assert (= temp1245_115 #x0000000000000000))
(assert (= temp1245_116 #x0000000000000001))
(assert (= temp1245_117 temp1245_116))
(assert (= temp1245_118 (select ARGNAME_stride_NAMEEND_VAL temp1245_117)))
(assert (= temp1245_119 #x0000000000000000))
(assert (= temp1245_120 #x0000000000000002))
(assert (= temp1245_121 temp1245_120))
(assert (= temp1245_122 (select ARGNAME_stride_NAMEEND_VAL temp1245_121)))
(assert (= temp1245_123 #x0000000000000000))
(assert (= temp1245_124 #x0000000000000003))
(assert (= temp1245_125 temp1245_124))
(assert (= temp1245_126 (select ARGNAME_stride_NAMEEND_VAL temp1245_125)))
(assert (= temp1245_127 #x0000000000000000))
(assert (= temp1245_128 #x0000000000000004))
(assert (= temp1245_129 temp1245_128))
(assert (= temp1245_130 (select ARGNAME_stride_NAMEEND_VAL temp1245_129)))
(assert (= temp1245_131 #x0000000000000000))
(assert (= temp1245_132 #x0000000000000005))
(assert (= temp1245_133 temp1245_132))
(assert (= temp1245_134 (select ARGNAME_stride_NAMEEND_VAL temp1245_133)))
(assert (= var1191735
   (ite (and true
             (bvsle temp1245_114 temp1245_111)
             (bvsle temp1245_118 temp1245_115)
             (bvsle temp1245_122 temp1245_119)
             (bvsle temp1245_126 temp1245_123)
             (bvsle temp1245_130 temp1245_127)
             (bvsle temp1245_134 temp1245_131))
        #x0000000000000001
        #x0000000000000000)))
(assert (= temp1245_135 #x0000000000000000))
(assert (= var1191735 temp1245_135))
(assert (= var1191747
   (ite (= ARGNAME_weight_NAMEEND_DIM ARGNAME_input_NAMEEND_DIM)
        #x0000000000000001
        #x0000000000000000)))
(assert (= temp1245_136 #x0000000000000001))
(assert (= var1191747 temp1245_136))
(assert (= temp1245_137 #x0000000000000000))
(assert (= var1179826 temp1245_137))
(assert (= temp1245_138 #x0000000000000000))
(assert (= temp1245_139 temp1245_138))
(assert (= temp1245_140 (select ARGNAME_weight_NAMEEND_DIMSIZE temp1245_139)))
(assert (= temp1245_141 #x0000000000000001))
(assert (= temp1245_142 temp1245_141))
(assert (= temp1245_143 (select ARGNAME_weight_NAMEEND_DIMSIZE temp1245_142)))
(assert (= temp1245_144 #x0000000000000002))
(assert (= temp1245_145 temp1245_144))
(assert (= temp1245_146 (select ARGNAME_weight_NAMEEND_DIMSIZE temp1245_145)))
(assert (= temp1245_147 #x0000000000000003))
(assert (= temp1245_148 temp1245_147))
(assert (= temp1245_149 (select ARGNAME_weight_NAMEEND_DIMSIZE temp1245_148)))
(assert (= temp1245_150 #x0000000000000004))
(assert (= temp1245_151 temp1245_150))
(assert (= temp1245_152 (select ARGNAME_weight_NAMEEND_DIMSIZE temp1245_151)))
(assert (= temp1245_153 #x0000000000000005))
(assert (= temp1245_154 temp1245_153))
(assert (= temp1245_155 (select ARGNAME_weight_NAMEEND_DIMSIZE temp1245_154)))
(assert (= temp1245_157 var1179826))
(assert (= temp1245_158 (select ARGNAME_weight_NAMEEND_DIMSIZE temp1245_157)))
(assert (= temp1245_156 temp1245_158))
(assert (= var1191780
   (ite (bvslt temp1245_156 ARGNAME_groups_NAMEEND)
        #x0000000000000001
        #x0000000000000000)))
(assert (= temp1245_159 #x0000000000000000))
(assert (= var1191780 temp1245_159))
(assert (= temp1245_160 #x0000000000000000))
(assert (= var1179826 temp1245_160))
(assert (= temp1245_162 var1179826))
(assert (= temp1245_163 (select ARGNAME_weight_NAMEEND_DIMSIZE temp1245_162)))
(assert (= temp1245_161 temp1245_163))
(assert (= var1191802 (bvsmod temp1245_161 ARGNAME_groups_NAMEEND)))
(assert (= temp1245_164 #x0000000000000000))
(assert (= var1191803
   (ite (= var1191802 temp1245_164) #x0000000000000001 #x0000000000000000)))
(assert (= temp1245_165 #x0000000000000001))
(assert (= var1191803 temp1245_165))
(assert (= temp1245_166 #x0000000000000000))
(assert (= var1191823
   (ite (= ARGNAME_transposed_NAMEEND temp1245_166)
        #x0000000000000001
        #x0000000000000000)))
(assert (= temp1245_167 #x0000000000000001))
(assert (= var1191823 temp1245_167))
(assert (= temp1245_168 #x0000000000000001))
(assert (= var1180714 temp1245_168))
(assert (= temp1245_169 #x0000000000000000))
(assert (= temp1245_170 temp1245_169))
(assert (= temp1245_171 (select ARGNAME_input_NAMEEND_DIMSIZE temp1245_170)))
(assert (= temp1245_172 #x0000000000000001))
(assert (= temp1245_173 temp1245_172))
(assert (= temp1245_174 (select ARGNAME_input_NAMEEND_DIMSIZE temp1245_173)))
(assert (= temp1245_175 #x0000000000000002))
(assert (= temp1245_176 temp1245_175))
(assert (= temp1245_177 (select ARGNAME_input_NAMEEND_DIMSIZE temp1245_176)))
(assert (= temp1245_178 #x0000000000000003))
(assert (= temp1245_179 temp1245_178))
(assert (= temp1245_180 (select ARGNAME_input_NAMEEND_DIMSIZE temp1245_179)))
(assert (= temp1245_181 #x0000000000000004))
(assert (= temp1245_182 temp1245_181))
(assert (= temp1245_183 (select ARGNAME_input_NAMEEND_DIMSIZE temp1245_182)))
(assert (= temp1245_184 #x0000000000000005))
(assert (= temp1245_185 temp1245_184))
(assert (= temp1245_186 (select ARGNAME_input_NAMEEND_DIMSIZE temp1245_185)))
(assert (= temp1245_187 #x0000000000000000))
(assert (= temp1245_188
   (ite (bvslt var1180714 temp1245_187)
        (bvadd ARGNAME_input_NAMEEND_DIM var1180714)
        var1180714)))
(assert (= temp1245_189 (select ARGNAME_input_NAMEEND_DIMSIZE temp1245_188)))
(assert (= var1191831 temp1245_189))
(assert (bvslt (ite (bvslt var1180714 temp1245_187)
            (bvadd ARGNAME_input_NAMEEND_DIM var1180714)
            var1180714)
       ARGNAME_input_NAMEEND_DIM))
(assert (= temp1245_190 #x0000000000000001))
(assert (= var1180714 temp1245_190))
(assert (= temp1245_192 var1180714))
(assert (= temp1245_193 (select ARGNAME_weight_NAMEEND_DIMSIZE temp1245_192)))
(assert (= temp1245_191 temp1245_193))
(assert (= var1191835 (bvmul ARGNAME_groups_NAMEEND temp1245_191)))
(assert (= var1191836
   (ite (= var1191831 var1191835) #x0000000000000001 #x0000000000000000)))
(assert (= temp1245_194 #x0000000000000001))
(assert (= var1191836 temp1245_194))
(assert (= temp1245_195 #x0000000000000000))
(assert (= var1179826 temp1245_195))
(assert (= temp1245_197 var1179826))
(assert (= temp1245_198 (select ARGNAME_weight_NAMEEND_DIMSIZE temp1245_197)))
(assert (= temp1245_196 temp1245_198))
(assert (= temp1245_199 #x0000000000000002))
(assert (= var1586025 temp1245_199))
(assert (= var1586034 var1586025))
(assert (= var1717312 var1586034))
(assert (= temp1245_200 #x0000000000000001))
(assert (= var1191993 temp1245_200))
(assert (= temp1245_201 #x0000000000000001))
(assert (= var2700303 temp1245_201))
(assert (= temp1245_202 #x0000000000000001))
(assert (= var2962447 temp1245_202))
(assert (= temp1245_203 #x0000000000000003))
(assert (= var211058
   (ite (= ARGNAME_weight_NAMEEND_DIM temp1245_203)
        #x0000000000000001
        #x0000000000000000)))
(assert (= temp1245_204 #x0000000000000001))
(assert (= var211058 temp1245_204))
(assert (= temp1245_205 #x0000000000000001))
(assert (= var211188 temp1245_205))
(assert (= var3879401 var211188))
(assert (= temp1245_206 #x0000000000000000))
(assert (= var3866802 temp1245_206))
(assert (= temp1245_207 #x0000000000000000))
(assert (= temp1245_208
   (ite (bvslt var3866802 temp1245_207)
        (bvadd ARGNAME_input_NAMEEND_DIM var3866802)
        var3866802)))
(assert (= temp1245_209 (select ARGNAME_input_NAMEEND_DIMSIZE temp1245_208)))
(assert (= var3879420 temp1245_209))
(assert (bvslt (ite (bvslt var3866802 temp1245_207)
            (bvadd ARGNAME_input_NAMEEND_DIM var3866802)
            var3866802)
       ARGNAME_input_NAMEEND_DIM))
(assert (= temp1245_210 #x0000000000000000))
(assert (= var3879421
   (ite (= var3879420 temp1245_210) #x0000000000000001 #x0000000000000000)))
(assert (= temp1245_211 #x0000000000000001))
(assert (= var3879421 temp1245_211))
(assert (= temp1245_212 #x0000000000000000))
(assert (= var4133117 temp1245_212))
(assert (= var4133062 var4133117))
(assert (= var4079396 var4133062))
(assert (= var4079423 var4079396))
(assert (= var4079425 var4079423))
(assert (= var4079382 var4079425))
(assert (= var211201 var4079382))
(assert (= temp1245_213 #x0000000000000002))
(assert (= var4339331 temp1245_213))
(assert (= var4339333 (bvsub ARGNAME_weight_NAMEEND_DIM var4339331)))
(assert (= var4404876 var4339331))
(assert (= var4404877 var4339333))
(assert (= var4404890 (bvadd var4404877 var4404876)))
(assert (= var4404892
   (ite (bvsgt var4404890 ARGNAME_weight_NAMEEND_DIM)
        #x0000000000000001
        #x0000000000000000)))
(assert (= temp1245_214 #x0000000000000000))
(assert (= var4404892 temp1245_214))
(assert (= var4404917 var4404876))
(assert (= var4404919 var4404877))
(assert (= var4525907 var4404919))
(assert (= var4927888 var211201))
(assert (= var211494 var210913))
(assert (= temp1245_215 #x0000000000000000))
(assert (= var211495
   (ite (distinct var211494 temp1245_215) #x0000000000000001 #x0000000000000000)))
(assert (= temp1245_216 #x0000000000000001))
(assert (= var211058 temp1245_216))
(model-add temp1245_1 () (_ BitVec 64) #x0000000000000001)
(model-add var77203 () (_ BitVec 64) #x0000000000000001)
(model-add var210653 () (_ BitVec 64) #x0000000000000001)
(model-add var210913 () (_ BitVec 64) #x0000000000000001)
(model-add temp1245_2 () (_ BitVec 64) #xfffffffffffffffe)
(model-add var210940
           ()
           (_ BitVec 64)
           (bvadd #xfffffffffffffffe ARGNAME_weight_NAMEEND_DIM))
(model-add temp1245_3 () (_ BitVec 64) #x0000000000000003)
(model-add temp1245_4 () (_ BitVec 64) #x0000000000000000)
(model-add var210941 () (_ BitVec 64) #x0000000000000000)
(model-del k!0)
(model-add ARGNAME_weight_NAMEEND_DIM
           ()
           (_ BitVec 64)
           (ite (or k!0 (= #x0000000000000003 #x8000000000000000))
                #x0000000000000003
                (bvsub #x0000000000000003 #x0000000000000001)))




